% Logging successfully configured
%%%mzn-stat: initTime=0.049917775
%%%mzn-stat: objective=654
%%%mzn-stat: nodes=218929
%%%mzn-stat: restarts=0
%%%mzn-stat: peakDepth=3376
%%%mzn-stat: solveTime=202.722594064
%%%mzn-stat: variables=4233
%%%mzn-stat: propagators=3754
%%%mzn-stat: failures=117990
%%%mzn-stat: propagations=3266213
%%%mzn-stat: nogoods=117990
%%%mzn-stat: numAtomicConstraintsPropagated=0
%%%mzn-stat: allDifferentNumber1TotalHallSetSize=7274455
%%%mzn-stat: allDifferentNumber1NumberOfConflicts=85485
%%%mzn-stat: allDifferentNumber1MaxHallSetSize=142
%%%mzn-stat: allDifferentNumber1PropagationsTotal=426387
%%%mzn-stat: allDifferentNumber1PropagationsThatFoundConflict=85485
%%%mzn-stat: circuitNumber2PropagationsThatFoundConflict=1695
%%%mzn-stat: circuitNumber2TotalFixedEdgesAtConflict=224139
%%%mzn-stat: circuitNumber2NumberOfConflicts=1695
%%%mzn-stat: circuitNumber2PropagationsThatPruned=8820
%%%mzn-stat: circuitNumber2PropagationsTotal=197359
%%%mzn-stat: AverageConflictSize=75.7055513179083
%%%mzn-stat: NumUnitNogoodsLearned=0
%%%mzn-stat: AverageLearnedNogoodLength=106.45657259089754
%%%mzn-stat: AverageBacktrackAmount=0
%%%mzn-stat: AverageLbd=100.97342147639631
%%%mzn-stat: 2AutonomousSearchNumBackupCalled=3244
%%%mzn-stat: 2AutonomousSearchNumPredicatesRemoved=0
%%%mzn-stat: 2AutonomousSearchNumCalls=3245
%%%mzn-stat: 2AutonomousSearchNumPredicatesAdded=3855
%%%mzn-stat: 2AutonomousSearchAverageSizeOfHeap=1.1879815100154083
%%%mzn-stat: 2AutonomousSearchNumAssignedPredicatesEncountered=3855
%%%mzn-stat-end
maxleg = 654;
succ = array1d(1..150,[5, 27, 7, 11, 2, 42, 6, 10, 3, 14, 13, 9, 23, 33, 1, 17, 12, 15, 21, 25, 30, 16, 48, 18, 31, 4, 29, 8, 34, 40, 37, 22, 51, 35, 38, 58, 49, 47, 20, 41, 32, 57, 19, 43, 28, 39, 64, 60, 26, 44, 52, 56, 54, 45, 46, 59, 24, 69, 65, 71, 50, 53, 66, 73, 68, 55, 63, 67, 70, 72, 82, 76, 36, 75, 88, 96, 78, 79, 90, 84, 62, 61, 86, 77, 98, 89, 104, 85, 81, 97, 92, 83, 74, 80, 93, 111, 91, 100, 114, 102, 95, 105, 101, 113, 107, 109, 123, 119, 115, 121, 117, 128, 94, 106, 135, 103, 118, 140, 122, 116, 125, 120, 130, 108, 150, 127, 131, 133, 146, 137, 132, 134, 141, 99, 139, 149, 148, 112, 87, 145, 144, 110, 142, 147, 143, 136, 124, 129, 126, 138]);
% time elapsed: 205.74 s
----------
%%%mzn-stat: initTime=0.049917775
%%%mzn-stat: objective=328
%%%mzn-stat: nodes=270927
%%%mzn-stat: restarts=0
%%%mzn-stat: peakDepth=3376
%%%mzn-stat: solveTime=273.277258937
%%%mzn-stat: variables=4233
%%%mzn-stat: propagators=3754
%%%mzn-stat: failures=160202
%%%mzn-stat: propagations=4303180
%%%mzn-stat: nogoods=160202
%%%mzn-stat: numAtomicConstraintsPropagated=0
%%%mzn-stat: allDifferentNumber1TotalHallSetSize=8649131
%%%mzn-stat: allDifferentNumber1NumberOfConflicts=108206
%%%mzn-stat: allDifferentNumber1MaxHallSetSize=142
%%%mzn-stat: allDifferentNumber1PropagationsTotal=519429
%%%mzn-stat: allDifferentNumber1PropagationsThatFoundConflict=108206
%%%mzn-stat: circuitNumber2PropagationsThatFoundConflict=1883
%%%mzn-stat: circuitNumber2TotalFixedEdgesAtConflict=248948
%%%mzn-stat: circuitNumber2NumberOfConflicts=1883
%%%mzn-stat: circuitNumber2PropagationsThatPruned=11662
%%%mzn-stat: circuitNumber2PropagationsTotal=228756
%%%mzn-stat: AverageConflictSize=72.66208287037615
%%%mzn-stat: NumUnitNogoodsLearned=0
%%%mzn-stat: AverageLearnedNogoodLength=111.9789328472803
%%%mzn-stat: AverageBacktrackAmount=0
%%%mzn-stat: AverageLbd=100.64831899726595
%%%mzn-stat: 2AutonomousSearchNumBackupCalled=6313
%%%mzn-stat: 2AutonomousSearchNumPredicatesRemoved=0
%%%mzn-stat: 2AutonomousSearchNumCalls=6315
%%%mzn-stat: 2AutonomousSearchNumPredicatesAdded=6273
%%%mzn-stat: 2AutonomousSearchAverageSizeOfHeap=1.285193982581156
%%%mzn-stat: 2AutonomousSearchNumAssignedPredicatesEncountered=8116
%%%mzn-stat-end
maxleg = 328;
succ = array1d(1..150,[5, 27, 7, 11, 2, 42, 6, 10, 3, 14, 13, 9, 23, 33, 1, 17, 12, 15, 21, 25, 30, 16, 48, 18, 31, 4, 29, 22, 34, 40, 37, 28, 51, 35, 38, 58, 8, 47, 20, 41, 32, 57, 19, 43, 39, 49, 64, 60, 26, 44, 52, 56, 54, 45, 46, 59, 24, 69, 65, 71, 50, 53, 66, 73, 68, 55, 63, 67, 70, 72, 82, 76, 36, 75, 88, 96, 78, 79, 90, 84, 62, 61, 86, 77, 98, 89, 104, 85, 81, 97, 92, 83, 74, 80, 93, 111, 91, 100, 114, 102, 95, 105, 101, 113, 107, 109, 123, 119, 115, 121, 117, 128, 94, 106, 135, 103, 118, 140, 122, 116, 125, 120, 130, 108, 150, 127, 131, 133, 146, 137, 132, 134, 141, 99, 139, 149, 148, 112, 87, 145, 144, 110, 142, 147, 143, 136, 124, 129, 126, 138]);
% time elapsed: 276.31 s
----------
%%%mzn-stat: initTime=0.049917775
%%%mzn-stat: objective=320
%%%mzn-stat: nodes=313787
%%%mzn-stat: restarts=0
%%%mzn-stat: peakDepth=3376
%%%mzn-stat: solveTime=326.724842069
%%%mzn-stat: variables=4233
%%%mzn-stat: propagators=3754
%%%mzn-stat: failures=197899
%%%mzn-stat: propagations=5305011
%%%mzn-stat: nogoods=197899
%%%mzn-stat: numAtomicConstraintsPropagated=0
%%%mzn-stat: allDifferentNumber1TotalHallSetSize=9540381
%%%mzn-stat: allDifferentNumber1NumberOfConflicts=127963
%%%mzn-stat: allDifferentNumber1MaxHallSetSize=142
%%%mzn-stat: allDifferentNumber1PropagationsTotal=596050
%%%mzn-stat: allDifferentNumber1PropagationsThatFoundConflict=127963
%%%mzn-stat: circuitNumber2PropagationsThatFoundConflict=2024
%%%mzn-stat: circuitNumber2TotalFixedEdgesAtConflict=267875
%%%mzn-stat: circuitNumber2NumberOfConflicts=2024
%%%mzn-stat: circuitNumber2PropagationsThatPruned=14283
%%%mzn-stat: circuitNumber2PropagationsTotal=252450
%%%mzn-stat: AverageConflictSize=68.80980702277424
%%%mzn-stat: NumUnitNogoodsLearned=0
%%%mzn-stat: AverageLearnedNogoodLength=112.64865411144068
%%%mzn-stat: AverageBacktrackAmount=0
%%%mzn-stat: AverageLbd=98.314554393908
%%%mzn-stat: 2AutonomousSearchNumBackupCalled=9485
%%%mzn-stat: 2AutonomousSearchNumPredicatesRemoved=0
%%%mzn-stat: 2AutonomousSearchNumCalls=9488
%%%mzn-stat: 2AutonomousSearchNumPredicatesAdded=8544
%%%mzn-stat: 2AutonomousSearchAverageSizeOfHeap=1.3116568296795952
%%%mzn-stat: 2AutonomousSearchNumAssignedPredicatesEncountered=12445
%%%mzn-stat-end
maxleg = 320;
succ = array1d(1..150,[5, 27, 7, 11, 2, 42, 6, 10, 3, 14, 13, 9, 23, 33, 1, 17, 12, 15, 21, 25, 30, 16, 48, 18, 31, 4, 29, 22, 34, 40, 37, 28, 52, 35, 38, 58, 8, 47, 20, 41, 32, 57, 19, 43, 39, 49, 64, 60, 26, 44, 56, 51, 54, 45, 46, 59, 24, 69, 65, 71, 50, 53, 66, 73, 68, 55, 63, 67, 70, 72, 82, 76, 36, 75, 88, 96, 78, 79, 90, 84, 62, 61, 86, 77, 98, 89, 104, 85, 81, 97, 92, 83, 74, 80, 93, 111, 91, 100, 114, 102, 95, 105, 101, 113, 107, 109, 123, 119, 115, 121, 117, 128, 94, 106, 135, 103, 118, 140, 122, 116, 125, 120, 130, 108, 150, 127, 131, 133, 146, 137, 132, 134, 141, 99, 139, 149, 148, 112, 87, 145, 144, 110, 142, 147, 143, 136, 124, 129, 126, 138]);
% time elapsed: 329.76 s
----------
%%%mzn-stat: initTime=0.049917775
%%%mzn-stat: objective=311
%%%mzn-stat: nodes=317079
%%%mzn-stat: restarts=0
%%%mzn-stat: peakDepth=3376
%%%mzn-stat: solveTime=326.751785866
%%%mzn-stat: variables=4233
%%%mzn-stat: propagators=3754
%%%mzn-stat: failures=197901
%%%mzn-stat: propagations=5311205
%%%mzn-stat: nogoods=197901
%%%mzn-stat: numAtomicConstraintsPropagated=0
%%%mzn-stat: allDifferentNumber1TotalHallSetSize=9540385
%%%mzn-stat: allDifferentNumber1NumberOfConflicts=127965
%%%mzn-stat: allDifferentNumber1MaxHallSetSize=142
%%%mzn-stat: allDifferentNumber1PropagationsTotal=596248
%%%mzn-stat: allDifferentNumber1PropagationsThatFoundConflict=127965
%%%mzn-stat: circuitNumber2PropagationsThatFoundConflict=2024
%%%mzn-stat: circuitNumber2TotalFixedEdgesAtConflict=267875
%%%mzn-stat: circuitNumber2NumberOfConflicts=2024
%%%mzn-stat: circuitNumber2PropagationsThatPruned=14287
%%%mzn-stat: circuitNumber2PropagationsTotal=252584
%%%mzn-stat: AverageConflictSize=68.80913183864659
%%%mzn-stat: NumUnitNogoodsLearned=0
%%%mzn-stat: AverageLearnedNogoodLength=112.6475358891567
%%%mzn-stat: AverageBacktrackAmount=0
%%%mzn-stat: AverageLbd=98.31358103294072
%%%mzn-stat: 2AutonomousSearchNumBackupCalled=12644
%%%mzn-stat: 2AutonomousSearchNumPredicatesRemoved=0
%%%mzn-stat: 2AutonomousSearchNumCalls=12648
%%%mzn-stat: 2AutonomousSearchNumPredicatesAdded=8548
%%%mzn-stat: 2AutonomousSearchAverageSizeOfHeap=1.3262175838077166
%%%mzn-stat: 2AutonomousSearchNumAssignedPredicatesEncountered=16774
%%%mzn-stat-end
maxleg = 311;
succ = array1d(1..150,[5, 27, 7, 11, 2, 42, 6, 10, 3, 14, 13, 9, 23, 33, 1, 17, 12, 15, 21, 25, 30, 16, 48, 18, 31, 4, 29, 22, 34, 40, 37, 28, 52, 35, 38, 58, 8, 47, 20, 41, 32, 57, 19, 43, 39, 49, 64, 60, 26, 44, 56, 51, 54, 45, 46, 59, 24, 69, 65, 71, 50, 53, 66, 73, 68, 55, 63, 67, 70, 72, 82, 76, 36, 75, 88, 96, 78, 79, 90, 84, 62, 61, 86, 77, 98, 89, 104, 85, 81, 97, 92, 83, 74, 80, 93, 111, 91, 100, 114, 102, 95, 105, 101, 113, 107, 109, 123, 119, 115, 121, 117, 128, 94, 106, 135, 103, 118, 140, 122, 116, 125, 120, 130, 108, 150, 127, 131, 133, 146, 137, 132, 134, 144, 99, 139, 149, 148, 112, 87, 145, 124, 110, 142, 147, 143, 136, 141, 129, 126, 138]);
% time elapsed: 329.80 s
----------
%%%mzn-stat: initTime=0.049917775
%%%mzn-stat: objective=304
%%%mzn-stat: nodes=320701
%%%mzn-stat: restarts=0
%%%mzn-stat: peakDepth=3376
%%%mzn-stat: solveTime=326.812211857
%%%mzn-stat: variables=4233
%%%mzn-stat: propagators=3754
%%%mzn-stat: failures=197950
%%%mzn-stat: propagations=5320501
%%%mzn-stat: nogoods=197950
%%%mzn-stat: numAtomicConstraintsPropagated=0
%%%mzn-stat: allDifferentNumber1TotalHallSetSize=9540577
%%%mzn-stat: allDifferentNumber1NumberOfConflicts=128009
%%%mzn-stat: allDifferentNumber1MaxHallSetSize=142
%%%mzn-stat: allDifferentNumber1PropagationsTotal=596947
%%%mzn-stat: allDifferentNumber1PropagationsThatFoundConflict=128009
%%%mzn-stat: circuitNumber2PropagationsThatFoundConflict=2027
%%%mzn-stat: circuitNumber2TotalFixedEdgesAtConflict=268303
%%%mzn-stat: circuitNumber2NumberOfConflicts=2027
%%%mzn-stat: circuitNumber2PropagationsThatPruned=14314
%%%mzn-stat: circuitNumber2PropagationsTotal=253064
%%%mzn-stat: AverageConflictSize=68.79364485981309
%%%mzn-stat: NumUnitNogoodsLearned=0
%%%mzn-stat: AverageLearnedNogoodLength=112.62156605203334
%%%mzn-stat: AverageBacktrackAmount=0
%%%mzn-stat: AverageLbd=98.2908966910836
%%%mzn-stat: 2AutonomousSearchNumBackupCalled=15794
%%%mzn-stat: 2AutonomousSearchNumPredicatesRemoved=0
%%%mzn-stat: 2AutonomousSearchNumCalls=15799
%%%mzn-stat: 2AutonomousSearchNumPredicatesAdded=8995
%%%mzn-stat: 2AutonomousSearchAverageSizeOfHeap=1.3381226659915184
%%%mzn-stat: 2AutonomousSearchNumAssignedPredicatesEncountered=21141
%%%mzn-stat-end
maxleg = 304;
succ = array1d(1..150,[5, 27, 7, 11, 2, 42, 6, 10, 3, 14, 13, 9, 23, 33, 1, 17, 12, 15, 21, 25, 30, 16, 48, 18, 31, 4, 29, 22, 34, 40, 37, 28, 52, 35, 38, 58, 8, 47, 20, 41, 32, 57, 19, 43, 39, 49, 64, 60, 26, 44, 56, 51, 54, 45, 46, 59, 24, 69, 65, 71, 50, 53, 66, 73, 68, 55, 63, 67, 70, 72, 82, 76, 36, 75, 88, 96, 78, 79, 90, 84, 62, 61, 86, 77, 98, 89, 104, 85, 81, 97, 92, 83, 74, 80, 93, 111, 99, 100, 114, 102, 95, 105, 101, 113, 107, 109, 123, 119, 115, 121, 117, 91, 94, 106, 147, 103, 118, 140, 122, 116, 108, 120, 130, 141, 138, 127, 131, 112, 146, 137, 132, 134, 128, 135, 139, 149, 148, 150, 87, 145, 144, 125, 142, 133, 143, 136, 124, 129, 126, 110]);
% time elapsed: 329.86 s
----------
%%%mzn-stat: initTime=0.049917775
%%%mzn-stat: objective=300
%%%mzn-stat: nodes=338699
%%%mzn-stat: restarts=0
%%%mzn-stat: peakDepth=3376
%%%mzn-stat: solveTime=329.39615072
%%%mzn-stat: variables=4233
%%%mzn-stat: propagators=3754
%%%mzn-stat: failures=199303
%%%mzn-stat: propagations=5468374
%%%mzn-stat: nogoods=199303
%%%mzn-stat: numAtomicConstraintsPropagated=0
%%%mzn-stat: allDifferentNumber1TotalHallSetSize=9543855
%%%mzn-stat: allDifferentNumber1NumberOfConflicts=128455
%%%mzn-stat: allDifferentNumber1MaxHallSetSize=142
%%%mzn-stat: allDifferentNumber1PropagationsTotal=620694
%%%mzn-stat: allDifferentNumber1PropagationsThatFoundConflict=128455
%%%mzn-stat: circuitNumber2PropagationsThatFoundConflict=2636
%%%mzn-stat: circuitNumber2TotalFixedEdgesAtConflict=354072
%%%mzn-stat: circuitNumber2NumberOfConflicts=2636
%%%mzn-stat: circuitNumber2PropagationsThatPruned=15103
%%%mzn-stat: circuitNumber2PropagationsTotal=269023
%%%mzn-stat: AverageConflictSize=68.45614968164051
%%%mzn-stat: NumUnitNogoodsLearned=0
%%%mzn-stat: AverageLearnedNogoodLength=112.13975705333085
%%%mzn-stat: AverageBacktrackAmount=0
%%%mzn-stat: AverageLbd=97.86269147980713
%%%mzn-stat: 2AutonomousSearchNumBackupCalled=18926
%%%mzn-stat: 2AutonomousSearchNumPredicatesRemoved=0
%%%mzn-stat: 2AutonomousSearchNumCalls=18932
%%%mzn-stat: 2AutonomousSearchNumPredicatesAdded=10961
%%%mzn-stat: 2AutonomousSearchAverageSizeOfHeap=1.3696915275723642
%%%mzn-stat: 2AutonomousSearchNumAssignedPredicatesEncountered=25931
%%%mzn-stat-end
maxleg = 300;
succ = array1d(1..150,[5, 27, 7, 11, 2, 42, 6, 10, 3, 14, 13, 9, 23, 37, 1, 17, 12, 15, 21, 25, 30, 16, 48, 18, 31, 4, 29, 22, 34, 40, 39, 28, 52, 35, 38, 58, 20, 47, 45, 41, 32, 57, 19, 43, 55, 49, 64, 60, 8, 44, 56, 51, 54, 62, 66, 59, 24, 69, 65, 71, 50, 81, 26, 73, 68, 63, 46, 67, 70, 33, 82, 76, 36, 75, 88, 96, 78, 79, 90, 84, 89, 83, 53, 77, 98, 61, 104, 85, 110, 97, 92, 99, 74, 80, 93, 111, 106, 100, 114, 102, 95, 105, 101, 113, 107, 109, 123, 86, 115, 121, 117, 91, 94, 134, 132, 103, 118, 119, 122, 116, 125, 120, 130, 141, 150, 127, 149, 112, 146, 137, 126, 131, 144, 135, 139, 72, 148, 133, 87, 142, 128, 143, 145, 147, 108, 140, 124, 129, 136, 138]);
% time elapsed: 332.47 s
----------
%%%mzn-stat: initTime=0.049917775
%%%mzn-stat: objective=290
%%%mzn-stat: nodes=343940
%%%mzn-stat: restarts=0
%%%mzn-stat: peakDepth=3376
%%%mzn-stat: solveTime=329.677184221
%%%mzn-stat: variables=4233
%%%mzn-stat: propagators=3754
%%%mzn-stat: failures=199358
%%%mzn-stat: propagations=5490564
%%%mzn-stat: nogoods=199358
%%%mzn-stat: numAtomicConstraintsPropagated=0
%%%mzn-stat: allDifferentNumber1TotalHallSetSize=9544148
%%%mzn-stat: allDifferentNumber1NumberOfConflicts=128509
%%%mzn-stat: allDifferentNumber1MaxHallSetSize=142
%%%mzn-stat: allDifferentNumber1PropagationsTotal=623873
%%%mzn-stat: allDifferentNumber1PropagationsThatFoundConflict=128509
%%%mzn-stat: circuitNumber2PropagationsThatFoundConflict=2636
%%%mzn-stat: circuitNumber2TotalFixedEdgesAtConflict=354072
%%%mzn-stat: circuitNumber2NumberOfConflicts=2636
%%%mzn-stat: circuitNumber2PropagationsThatPruned=15198
%%%mzn-stat: circuitNumber2PropagationsTotal=271214
%%%mzn-stat: AverageConflictSize=68.43943057213656
%%%mzn-stat: NumUnitNogoodsLearned=0
%%%mzn-stat: AverageLearnedNogoodLength=112.11363476760401
%%%mzn-stat: AverageBacktrackAmount=0
%%%mzn-stat: AverageLbd=97.83989606637306
%%%mzn-stat: 2AutonomousSearchNumBackupCalled=22059
%%%mzn-stat: 2AutonomousSearchNumPredicatesRemoved=0
%%%mzn-stat: 2AutonomousSearchNumCalls=22066
%%%mzn-stat: 2AutonomousSearchNumPredicatesAdded=11471
%%%mzn-stat: 2AutonomousSearchAverageSizeOfHeap=1.3934559956494155
%%%mzn-stat: 2AutonomousSearchNumAssignedPredicatesEncountered=30748
%%%mzn-stat-end
maxleg = 290;
succ = array1d(1..150,[5, 27, 7, 11, 2, 42, 6, 10, 3, 14, 13, 9, 23, 37, 1, 17, 12, 15, 21, 25, 30, 16, 48, 18, 31, 4, 29, 22, 34, 40, 39, 28, 52, 35, 38, 58, 20, 47, 45, 41, 32, 57, 19, 43, 55, 49, 64, 60, 8, 44, 56, 51, 54, 81, 66, 59, 24, 69, 65, 71, 50, 53, 26, 73, 68, 63, 46, 67, 70, 33, 82, 76, 36, 75, 88, 96, 78, 79, 90, 84, 89, 83, 86, 77, 98, 62, 104, 85, 110, 97, 92, 99, 74, 80, 93, 111, 106, 61, 114, 102, 95, 105, 101, 113, 107, 109, 123, 119, 115, 121, 117, 91, 94, 134, 132, 100, 118, 140, 122, 103, 108, 145, 120, 141, 150, 127, 149, 112, 148, 116, 126, 131, 144, 135, 139, 72, 130, 133, 87, 146, 128, 125, 142, 147, 143, 129, 124, 137, 136, 138]);
% time elapsed: 332.76 s
----------
%%%mzn-stat: initTime=0.049917775
%%%mzn-stat: objective=287
%%%mzn-stat: nodes=352738
%%%mzn-stat: restarts=0
%%%mzn-stat: peakDepth=3376
%%%mzn-stat: solveTime=330.368668643
%%%mzn-stat: variables=4233
%%%mzn-stat: propagators=3754
%%%mzn-stat: failures=199520
%%%mzn-stat: propagations=5538958
%%%mzn-stat: nogoods=199520
%%%mzn-stat: numAtomicConstraintsPropagated=0
%%%mzn-stat: allDifferentNumber1TotalHallSetSize=9544868
%%%mzn-stat: allDifferentNumber1NumberOfConflicts=128671
%%%mzn-stat: allDifferentNumber1MaxHallSetSize=142
%%%mzn-stat: allDifferentNumber1PropagationsTotal=631927
%%%mzn-stat: allDifferentNumber1PropagationsThatFoundConflict=128671
%%%mzn-stat: circuitNumber2PropagationsThatFoundConflict=2636
%%%mzn-stat: circuitNumber2TotalFixedEdgesAtConflict=354072
%%%mzn-stat: circuitNumber2NumberOfConflicts=2636
%%%mzn-stat: circuitNumber2PropagationsThatPruned=15325
%%%mzn-stat: circuitNumber2PropagationsTotal=276860
%%%mzn-stat: AverageConflictSize=68.3888231756215
%%%mzn-stat: NumUnitNogoodsLearned=0
%%%mzn-stat: AverageLearnedNogoodLength=112.02753608660785
%%%mzn-stat: AverageBacktrackAmount=0
%%%mzn-stat: AverageLbd=97.76432437850842
%%%mzn-stat: 2AutonomousSearchNumBackupCalled=25180
%%%mzn-stat: 2AutonomousSearchNumPredicatesRemoved=0
%%%mzn-stat: 2AutonomousSearchNumCalls=25188
%%%mzn-stat: 2AutonomousSearchNumPredicatesAdded=11808
%%%mzn-stat: 2AutonomousSearchAverageSizeOfHeap=1.4144036842941083
%%%mzn-stat: 2AutonomousSearchNumAssignedPredicatesEncountered=35626
%%%mzn-stat-end
maxleg = 287;
succ = array1d(1..150,[5, 27, 7, 11, 2, 42, 6, 10, 3, 14, 13, 9, 23, 37, 1, 17, 12, 15, 21, 25, 30, 16, 48, 18, 31, 4, 29, 22, 34, 40, 39, 28, 52, 35, 38, 58, 20, 47, 45, 41, 44, 57, 19, 50, 32, 49, 64, 60, 8, 61, 56, 51, 54, 81, 46, 59, 24, 69, 65, 71, 82, 53, 26, 73, 68, 55, 63, 67, 70, 33, 43, 76, 36, 75, 88, 96, 78, 66, 77, 84, 89, 83, 86, 92, 98, 62, 104, 85, 110, 79, 112, 91, 74, 80, 93, 111, 90, 100, 97, 102, 95, 105, 101, 113, 107, 109, 123, 119, 114, 121, 117, 128, 94, 134, 106, 103, 118, 140, 122, 116, 108, 120, 130, 99, 150, 72, 126, 133, 146, 137, 87, 131, 144, 135, 139, 149, 148, 141, 132, 145, 147, 125, 142, 124, 143, 136, 115, 129, 127, 138]);
% time elapsed: 333.46 s
----------
%%%mzn-stat: initTime=0.049917775
%%%mzn-stat: objective=277
%%%mzn-stat: nodes=360726
%%%mzn-stat: restarts=0
%%%mzn-stat: peakDepth=3376
%%%mzn-stat: solveTime=330.976124277
%%%mzn-stat: variables=4233
%%%mzn-stat: propagators=3754
%%%mzn-stat: failures=199644
%%%mzn-stat: propagations=5581655
%%%mzn-stat: nogoods=199644
%%%mzn-stat: numAtomicConstraintsPropagated=0
%%%mzn-stat: allDifferentNumber1TotalHallSetSize=9545274
%%%mzn-stat: allDifferentNumber1NumberOfConflicts=128795
%%%mzn-stat: allDifferentNumber1MaxHallSetSize=142
%%%mzn-stat: allDifferentNumber1PropagationsTotal=638858
%%%mzn-stat: allDifferentNumber1PropagationsThatFoundConflict=128795
%%%mzn-stat: circuitNumber2PropagationsThatFoundConflict=2636
%%%mzn-stat: circuitNumber2TotalFixedEdgesAtConflict=354072
%%%mzn-stat: circuitNumber2NumberOfConflicts=2636
%%%mzn-stat: circuitNumber2PropagationsThatPruned=15365
%%%mzn-stat: circuitNumber2PropagationsTotal=281704
%%%mzn-stat: AverageConflictSize=68.34958726533229
%%%mzn-stat: NumUnitNogoodsLearned=0
%%%mzn-stat: AverageLearnedNogoodLength=111.96312436136323
%%%mzn-stat: AverageBacktrackAmount=0
%%%mzn-stat: AverageLbd=97.70797018693274
%%%mzn-stat: 2AutonomousSearchNumBackupCalled=28255
%%%mzn-stat: 2AutonomousSearchNumPredicatesRemoved=0
%%%mzn-stat: 2AutonomousSearchNumCalls=28264
%%%mzn-stat: 2AutonomousSearchNumPredicatesAdded=12345
%%%mzn-stat: 2AutonomousSearchAverageSizeOfHeap=1.434793376733654
%%%mzn-stat: 2AutonomousSearchNumAssignedPredicatesEncountered=40553
%%%mzn-stat-end
maxleg = 277;
succ = array1d(1..150,[5, 27, 7, 11, 2, 42, 6, 10, 3, 14, 13, 9, 23, 37, 1, 17, 12, 15, 21, 25, 30, 16, 48, 18, 31, 4, 29, 22, 34, 40, 39, 28, 52, 35, 38, 58, 20, 47, 46, 41, 44, 57, 19, 50, 32, 49, 64, 60, 26, 61, 8, 51, 54, 81, 45, 33, 24, 56, 65, 71, 82, 53, 66, 73, 68, 55, 63, 67, 70, 59, 43, 76, 36, 75, 88, 69, 78, 79, 90, 84, 89, 83, 86, 77, 98, 62, 104, 85, 110, 97, 92, 99, 74, 80, 93, 72, 106, 100, 114, 102, 95, 105, 101, 113, 107, 109, 123, 119, 115, 121, 96, 91, 94, 134, 132, 103, 111, 117, 118, 116, 125, 120, 129, 141, 150, 127, 149, 112, 148, 142, 126, 131, 144, 135, 139, 146, 130, 133, 87, 122, 128, 143, 145, 147, 108, 140, 124, 137, 136, 138]);
% time elapsed: 334.07 s
----------
%%%mzn-stat: initTime=0.049917775
%%%mzn-stat: objective=276
%%%mzn-stat: nodes=371113
%%%mzn-stat: restarts=0
%%%mzn-stat: peakDepth=3376
%%%mzn-stat: solveTime=331.845893147
%%%mzn-stat: variables=4233
%%%mzn-stat: propagators=3754
%%%mzn-stat: failures=199880
%%%mzn-stat: propagations=5646163
%%%mzn-stat: nogoods=199880
%%%mzn-stat: numAtomicConstraintsPropagated=0
%%%mzn-stat: allDifferentNumber1TotalHallSetSize=9546943
%%%mzn-stat: allDifferentNumber1NumberOfConflicts=129014
%%%mzn-stat: allDifferentNumber1MaxHallSetSize=142
%%%mzn-stat: allDifferentNumber1PropagationsTotal=649257
%%%mzn-stat: allDifferentNumber1PropagationsThatFoundConflict=129014
%%%mzn-stat: circuitNumber2PropagationsThatFoundConflict=2644
%%%mzn-stat: circuitNumber2TotalFixedEdgesAtConflict=355154
%%%mzn-stat: circuitNumber2NumberOfConflicts=2644
%%%mzn-stat: circuitNumber2PropagationsThatPruned=15390
%%%mzn-stat: circuitNumber2PropagationsTotal=288882
%%%mzn-stat: AverageConflictSize=68.28437062237343
%%%mzn-stat: NumUnitNogoodsLearned=0
%%%mzn-stat: AverageLearnedNogoodLength=111.8546477886732
%%%mzn-stat: AverageBacktrackAmount=0
%%%mzn-stat: AverageLbd=97.61022113267961
%%%mzn-stat: 2AutonomousSearchNumBackupCalled=31326
%%%mzn-stat: 2AutonomousSearchNumPredicatesRemoved=0
%%%mzn-stat: 2AutonomousSearchNumCalls=31336
%%%mzn-stat: 2AutonomousSearchNumPredicatesAdded=13779
%%%mzn-stat: 2AutonomousSearchAverageSizeOfHeap=1.4542698493745214
%%%mzn-stat: 2AutonomousSearchNumAssignedPredicatesEncountered=45571
%%%mzn-stat-end
maxleg = 276;
succ = array1d(1..150,[5, 27, 7, 11, 2, 42, 6, 10, 3, 14, 13, 9, 23, 37, 1, 17, 12, 15, 21, 25, 30, 16, 48, 18, 31, 4, 29, 22, 34, 40, 39, 28, 52, 35, 38, 58, 20, 47, 46, 41, 44, 57, 19, 50, 32, 49, 64, 60, 26, 61, 8, 51, 54, 81, 45, 33, 24, 56, 65, 71, 82, 53, 66, 73, 68, 67, 78, 70, 63, 69, 43, 59, 36, 75, 88, 72, 79, 77, 90, 84, 89, 83, 86, 92, 98, 62, 104, 85, 110, 55, 112, 91, 74, 80, 93, 76, 99, 100, 114, 102, 95, 105, 101, 113, 107, 97, 123, 119, 106, 121, 96, 128, 94, 115, 132, 103, 118, 140, 122, 116, 125, 120, 129, 108, 150, 111, 126, 133, 148, 142, 127, 134, 144, 135, 139, 149, 130, 141, 87, 146, 147, 143, 145, 124, 117, 136, 109, 137, 131, 138]);
% time elapsed: 334.95 s
----------
%%%mzn-stat: initTime=0.049917775
%%%mzn-stat: objective=275
%%%mzn-stat: nodes=381579
%%%mzn-stat: restarts=0
%%%mzn-stat: peakDepth=3376
%%%mzn-stat: solveTime=332.915338937
%%%mzn-stat: variables=4233
%%%mzn-stat: propagators=3754
%%%mzn-stat: failures=200505
%%%mzn-stat: propagations=5719027
%%%mzn-stat: nogoods=200505
%%%mzn-stat: numAtomicConstraintsPropagated=0
%%%mzn-stat: allDifferentNumber1TotalHallSetSize=9554530
%%%mzn-stat: allDifferentNumber1NumberOfConflicts=129474
%%%mzn-stat: allDifferentNumber1MaxHallSetSize=142
%%%mzn-stat: allDifferentNumber1PropagationsTotal=660158
%%%mzn-stat: allDifferentNumber1PropagationsThatFoundConflict=129474
%%%mzn-stat: circuitNumber2PropagationsThatFoundConflict=2673
%%%mzn-stat: circuitNumber2TotalFixedEdgesAtConflict=358948
%%%mzn-stat: circuitNumber2NumberOfConflicts=2673
%%%mzn-stat: circuitNumber2PropagationsThatPruned=15430
%%%mzn-stat: circuitNumber2PropagationsTotal=296128
%%%mzn-stat: AverageConflictSize=68.14681928131468
%%%mzn-stat: NumUnitNogoodsLearned=0
%%%mzn-stat: AverageLearnedNogoodLength=111.70752849056133
%%%mzn-stat: AverageBacktrackAmount=0
%%%mzn-stat: AverageLbd=97.4391611181766
%%%mzn-stat: 2AutonomousSearchNumBackupCalled=34359
%%%mzn-stat: 2AutonomousSearchNumPredicatesRemoved=0
%%%mzn-stat: 2AutonomousSearchNumCalls=34370
%%%mzn-stat: 2AutonomousSearchNumPredicatesAdded=15361
%%%mzn-stat: 2AutonomousSearchAverageSizeOfHeap=1.474018038987489
%%%mzn-stat: 2AutonomousSearchNumAssignedPredicatesEncountered=50662
%%%mzn-stat-end
maxleg = 275;
succ = array1d(1..150,[5, 27, 7, 11, 2, 42, 6, 10, 3, 14, 13, 9, 23, 37, 1, 17, 12, 15, 21, 25, 30, 16, 48, 18, 31, 4, 29, 22, 34, 40, 39, 28, 52, 35, 38, 58, 20, 47, 46, 41, 44, 73, 19, 50, 32, 49, 57, 60, 26, 61, 8, 51, 54, 81, 45, 33, 43, 56, 65, 71, 82, 53, 66, 24, 68, 67, 78, 70, 63, 69, 83, 59, 36, 64, 74, 72, 79, 77, 90, 84, 89, 86, 92, 95, 88, 62, 104, 75, 110, 55, 112, 91, 101, 80, 93, 76, 99, 85, 114, 98, 103, 100, 116, 113, 102, 97, 105, 119, 106, 121, 96, 128, 94, 115, 132, 120, 118, 140, 122, 123, 125, 129, 107, 108, 150, 111, 126, 133, 148, 142, 127, 134, 144, 135, 139, 149, 130, 141, 87, 146, 124, 143, 145, 147, 117, 136, 109, 137, 131, 138]);
% time elapsed: 336.03 s
----------
%%%mzn-stat: initTime=0.049917775
%%%mzn-stat: objective=274
%%%mzn-stat: nodes=398205
%%%mzn-stat: restarts=0
%%%mzn-stat: peakDepth=3376
%%%mzn-stat: solveTime=344.312003084
%%%mzn-stat: variables=4233
%%%mzn-stat: propagators=3754
%%%mzn-stat: failures=212466
%%%mzn-stat: propagations=6143585
%%%mzn-stat: nogoods=212466
%%%mzn-stat: numAtomicConstraintsPropagated=0
%%%mzn-stat: allDifferentNumber1TotalHallSetSize=9745809
%%%mzn-stat: allDifferentNumber1NumberOfConflicts=137550
%%%mzn-stat: allDifferentNumber1MaxHallSetSize=142
%%%mzn-stat: allDifferentNumber1PropagationsTotal=689382
%%%mzn-stat: allDifferentNumber1PropagationsThatFoundConflict=137550
%%%mzn-stat: circuitNumber2PropagationsThatFoundConflict=2728
%%%mzn-stat: circuitNumber2TotalFixedEdgesAtConflict=366070
%%%mzn-stat: circuitNumber2NumberOfConflicts=2728
%%%mzn-stat: circuitNumber2PropagationsThatPruned=16348
%%%mzn-stat: circuitNumber2PropagationsTotal=306566
%%%mzn-stat: AverageConflictSize=66.45460920806153
%%%mzn-stat: NumUnitNogoodsLearned=0
%%%mzn-stat: AverageLearnedNogoodLength=111.20191465928666
%%%mzn-stat: AverageBacktrackAmount=0
%%%mzn-stat: AverageLbd=95.40792879801944
%%%mzn-stat: 2AutonomousSearchNumBackupCalled=37375
%%%mzn-stat: 2AutonomousSearchNumPredicatesRemoved=0
%%%mzn-stat: 2AutonomousSearchNumCalls=37387
%%%mzn-stat: 2AutonomousSearchNumPredicatesAdded=17333
%%%mzn-stat: 2AutonomousSearchAverageSizeOfHeap=1.4948511514697622
%%%mzn-stat: 2AutonomousSearchNumAssignedPredicatesEncountered=55888
%%%mzn-stat-end
maxleg = 274;
succ = array1d(1..150,[5, 27, 7, 11, 2, 42, 6, 10, 3, 14, 13, 9, 23, 37, 1, 17, 12, 15, 21, 25, 30, 16, 48, 18, 31, 4, 29, 22, 34, 40, 39, 28, 52, 35, 38, 58, 20, 47, 46, 41, 44, 73, 19, 50, 32, 49, 57, 60, 26, 61, 8, 51, 54, 81, 45, 33, 43, 56, 65, 71, 82, 53, 66, 24, 68, 67, 78, 70, 63, 69, 83, 59, 36, 64, 74, 72, 79, 77, 90, 84, 89, 86, 92, 95, 88, 62, 104, 75, 110, 55, 112, 91, 101, 80, 93, 76, 99, 85, 114, 98, 103, 100, 116, 113, 102, 97, 105, 119, 106, 121, 96, 128, 94, 115, 134, 120, 118, 140, 122, 123, 125, 129, 107, 108, 150, 87, 126, 133, 148, 142, 149, 131, 144, 135, 139, 111, 130, 141, 132, 146, 124, 143, 145, 147, 117, 136, 109, 137, 127, 138]);
% time elapsed: 347.45 s
----------
%%%mzn-stat: initTime=0.049917775
%%%mzn-stat: objective=272
%%%mzn-stat: nodes=403817
%%%mzn-stat: restarts=0
%%%mzn-stat: peakDepth=3376
%%%mzn-stat: solveTime=344.652412936
%%%mzn-stat: variables=4233
%%%mzn-stat: propagators=3754
%%%mzn-stat: failures=212551
%%%mzn-stat: propagations=6170873
%%%mzn-stat: nogoods=212551
%%%mzn-stat: numAtomicConstraintsPropagated=0
%%%mzn-stat: allDifferentNumber1TotalHallSetSize=9746630
%%%mzn-stat: allDifferentNumber1NumberOfConflicts=137629
%%%mzn-stat: allDifferentNumber1MaxHallSetSize=142
%%%mzn-stat: allDifferentNumber1PropagationsTotal=693263
%%%mzn-stat: allDifferentNumber1PropagationsThatFoundConflict=137629
%%%mzn-stat: circuitNumber2PropagationsThatFoundConflict=2734
%%%mzn-stat: circuitNumber2TotalFixedEdgesAtConflict=366908
%%%mzn-stat: circuitNumber2NumberOfConflicts=2734
%%%mzn-stat: circuitNumber2PropagationsThatPruned=16404
%%%mzn-stat: circuitNumber2PropagationsTotal=309212
%%%mzn-stat: AverageConflictSize=66.43629528913061
%%%mzn-stat: NumUnitNogoodsLearned=0
%%%mzn-stat: AverageLearnedNogoodLength=111.16676468235859
%%%mzn-stat: AverageBacktrackAmount=0
%%%mzn-stat: AverageLbd=95.37614972406622
%%%mzn-stat: 2AutonomousSearchNumBackupCalled=40372
%%%mzn-stat: 2AutonomousSearchNumPredicatesRemoved=0
%%%mzn-stat: 2AutonomousSearchNumCalls=40385
%%%mzn-stat: 2AutonomousSearchNumPredicatesAdded=18188
%%%mzn-stat: 2AutonomousSearchAverageSizeOfHeap=1.5153893772440263
%%%mzn-stat: 2AutonomousSearchNumAssignedPredicatesEncountered=61199
%%%mzn-stat-end
maxleg = 272;
succ = array1d(1..150,[5, 27, 7, 11, 2, 42, 6, 10, 3, 14, 13, 9, 23, 37, 1, 17, 12, 15, 21, 25, 30, 16, 48, 18, 31, 4, 29, 22, 34, 40, 46, 28, 52, 35, 38, 58, 20, 47, 55, 41, 44, 73, 19, 50, 32, 39, 57, 60, 8, 61, 56, 51, 54, 81, 45, 59, 43, 69, 65, 71, 82, 53, 26, 24, 68, 49, 63, 67, 70, 33, 83, 76, 36, 64, 74, 96, 78, 66, 77, 84, 89, 86, 92, 95, 88, 62, 104, 75, 110, 79, 112, 91, 101, 80, 93, 111, 90, 85, 97, 98, 103, 100, 116, 113, 102, 109, 105, 119, 114, 121, 136, 128, 126, 134, 106, 120, 94, 117, 118, 122, 108, 123, 140, 99, 150, 127, 131, 133, 148, 107, 149, 87, 144, 135, 139, 146, 130, 141, 132, 145, 124, 125, 142, 147, 143, 129, 115, 137, 72, 138]);
% time elapsed: 347.79 s
----------
%%%mzn-stat: initTime=0.049917775
%%%mzn-stat: objective=271
%%%mzn-stat: nodes=407195
%%%mzn-stat: restarts=0
%%%mzn-stat: peakDepth=3376
%%%mzn-stat: solveTime=344.699626512
%%%mzn-stat: variables=4233
%%%mzn-stat: propagators=3754
%%%mzn-stat: failures=212567
%%%mzn-stat: propagations=6178869
%%%mzn-stat: nogoods=212567
%%%mzn-stat: numAtomicConstraintsPropagated=0
%%%mzn-stat: allDifferentNumber1TotalHallSetSize=9746851
%%%mzn-stat: allDifferentNumber1NumberOfConflicts=137645
%%%mzn-stat: allDifferentNumber1MaxHallSetSize=142
%%%mzn-stat: allDifferentNumber1PropagationsTotal=693762
%%%mzn-stat: allDifferentNumber1PropagationsThatFoundConflict=137645
%%%mzn-stat: circuitNumber2PropagationsThatFoundConflict=2734
%%%mzn-stat: circuitNumber2TotalFixedEdgesAtConflict=366908
%%%mzn-stat: circuitNumber2NumberOfConflicts=2734
%%%mzn-stat: circuitNumber2PropagationsThatPruned=16419
%%%mzn-stat: circuitNumber2PropagationsTotal=309529
%%%mzn-stat: AverageConflictSize=66.43336924357968
%%%mzn-stat: NumUnitNogoodsLearned=0
%%%mzn-stat: AverageLearnedNogoodLength=111.1607869518787
%%%mzn-stat: AverageBacktrackAmount=0
%%%mzn-stat: AverageLbd=95.37011389350181
%%%mzn-stat: 2AutonomousSearchNumBackupCalled=43435
%%%mzn-stat: 2AutonomousSearchNumPredicatesRemoved=0
%%%mzn-stat: 2AutonomousSearchNumCalls=43449
%%%mzn-stat: 2AutonomousSearchNumPredicatesAdded=18672
%%%mzn-stat: 2AutonomousSearchAverageSizeOfHeap=1.5310824184676288
%%%mzn-stat: 2AutonomousSearchNumAssignedPredicatesEncountered=66524
%%%mzn-stat-end
maxleg = 271;
succ = array1d(1..150,[5, 27, 7, 11, 2, 42, 6, 10, 3, 14, 13, 9, 23, 37, 1, 17, 12, 15, 21, 25, 30, 16, 48, 18, 31, 4, 29, 22, 34, 40, 46, 28, 52, 35, 38, 58, 20, 47, 55, 41, 44, 73, 19, 50, 32, 39, 57, 60, 8, 61, 56, 51, 54, 81, 45, 59, 43, 69, 65, 71, 82, 53, 26, 24, 68, 49, 63, 67, 70, 33, 83, 76, 36, 64, 74, 96, 78, 66, 77, 84, 89, 86, 92, 95, 88, 62, 104, 75, 110, 79, 112, 97, 101, 80, 93, 111, 99, 85, 114, 98, 103, 100, 116, 113, 102, 90, 105, 119, 106, 121, 136, 128, 126, 115, 132, 120, 94, 117, 118, 122, 108, 123, 140, 147, 150, 127, 131, 133, 148, 107, 149, 134, 144, 135, 139, 146, 130, 141, 87, 145, 91, 125, 142, 124, 143, 129, 109, 137, 72, 138]);
% time elapsed: 347.85 s
----------
